50

91 27 286
88 30 358
88 30 316
87 17 340
87 24 285
86 21 325
86 10 310
85 19 307
85 26 343
84 28 395
83 29 291
80 8 279
79 16 237
78 38 239
77 28 377
70 10 391
70 32 332
68 14 208
67 11 389
66 6 337
59 3 380
52 13 242
49 15 262
48 19 299
47 4 188
47 21 180
44 21 238
42 13 161
38 10 235
37 13 380
37 11 263
34 5 343
34 8 175
33 11 167
31 14 299
29 4 220
27 0 375
24 6 186
21 8 268
17 1 188
16 2 189
16 8 353
15 3 390
14 4 337
8 2 322
6 1 309
5 0 138
4 1 62
2 1 186
2 1 201
